
ASes= { 1, 2, 3, 4, 5 } ;


Objects= { 1, 2, 3, 4, 5, 6, 7, 8, 9, 10, 11, 12, 13, 14, 15, 16, 17, 18, 19, 20, 21, 22, 23, 24, 25, 26, 27, 28, 29, 30, 31, 32, 33, 34, 35, 36, 37, 38, 39, 40, 41, 42, 43, 44, 45, 46, 47, 48, 49, 50, 51, 52, 53, 54, 55, 56, 57, 58, 59, 60, 61, 62, 63, 64, 65, 66, 67, 68, 69, 70, 71, 72, 73, 74, 75, 76, 77, 78, 79, 80, 81, 82, 83, 84, 85, 86, 87, 88, 89, 90, 91, 92, 93, 94, 95, 96, 97, 98, 99, 100, 101, 102, 103, 104, 105, 106, 107, 108, 109, 110, 111, 112, 113, 114, 115, 116, 117, 118, 119, 120, 121, 122, 123, 124, 125, 126, 127, 128, 129, 130, 131, 132, 133, 134, 135, 136, 137, 138, 139, 140, 141, 142, 143, 144, 145, 146, 147, 148, 149, 150, 151, 152, 153, 154, 155, 156, 157, 158, 159, 160, 161, 162, 163, 164, 165, 166, 167, 168, 169, 170, 171, 172, 173, 174, 175, 176, 177, 178, 179, 180, 181, 182, 183, 184, 185, 186, 187, 188, 189, 190, 191, 192, 193, 194, 195, 196, 197, 198, 199, 200, 201, 202, 203, 204, 205, 206, 207, 208, 209, 210, 211, 212, 213, 214, 215, 216, 217, 218, 219, 220, 221, 222, 223, 224, 225, 226, 227, 228, 229, 230, 231, 232, 233, 234, 235, 236, 237, 238, 239, 240, 241, 242, 243, 244, 245, 246, 247, 248, 249, 250, 251, 252, 253, 254, 255, 256, 257, 258, 259, 260, 261, 262, 263, 264, 265, 266, 267, 268, 269, 270, 271, 272, 273, 274, 275, 276, 277, 278, 279, 280, 281, 282, 283, 284, 285, 286, 287, 288, 289, 290, 291, 292, 293, 294, 295, 296, 297, 298, 299, 300, 301, 302, 303, 304, 305, 306, 307, 308, 309, 310, 311, 312, 313, 314, 315, 316, 317, 318, 319, 320, 321, 322, 323, 324, 325, 326, 327, 328, 329, 330, 331, 332, 333, 334, 335, 336, 337, 338, 339, 340, 341, 342, 343, 344, 345, 346, 347, 348, 349, 350, 351, 352, 353, 354, 355, 356, 357, 358, 359, 360, 361, 362, 363, 364, 365, 366, 367, 368, 369, 370, 371, 372, 373, 374, 375, 376, 377, 378, 379, 380, 381, 382, 383, 384, 385, 386, 387, 388, 389, 390, 391, 392, 393, 394, 395, 396, 397, 398, 399, 400, 401, 402, 403, 404, 405, 406, 407, 408, 409, 410, 411, 412, 413, 414, 415, 416, 417, 418, 419, 420, 421, 422, 423, 424, 425, 426, 427, 428, 429, 430, 431, 432, 433, 434, 435, 436, 437, 438, 439, 440, 441, 442, 443, 444, 445, 446, 447, 448, 449, 450, 451, 452, 453, 454, 455, 456, 457, 458, 459, 460, 461, 462, 463, 464, 465, 466, 467, 468, 469, 470, 471, 472, 473, 474, 475, 476, 477, 478, 479, 480, 481, 482, 483, 484, 485, 486, 487, 488, 489, 490, 491, 492, 493, 494, 495, 496, 497, 498, 499, 500 } ;


QualityLevels= { 0, 1, 2, 3, 4, 5 } ;

Arcs = { <1,2,490000>, <2,1,490000>,<1,3,490000>, <3,1,490000>,<1,4,490000>, <4,1,490000>,<2,5,490000>, <5,2,490000> }; 


RatePerQuality= [ 0  300  700  1500  2500  3500 ] ;


CacheSpacePerQuality= [ 10000  11.25  26.25  56.25  93.75  131.25 ] ;


UtilityPerQuality= [ 0  0.2  0.4  0.6  0.8  1 ] ;


ObjectsPublishedByProducers=[ [ 0  0  1  0  0 ]  [ 1  0  0  0  0 ]  [ 0  1  0  0  0 ]  [ 0  0  0  1  0 ]  [ 0  0  0  0  1 ]  [ 0  0  0  0  1 ]  [ 0  1  0  0  0 ]  [ 0  1  0  0  0 ]  [ 0  0  1  0  0 ]  [ 0  0  1  0  0 ]  [ 1  0  0  0  0 ]  [ 0  0  0  0  1 ]  [ 0  1  0  0  0 ]  [ 0  0  1  0  0 ]  [ 0  0  0  0  1 ]  [ 0  1  0  0  0 ]  [ 0  0  0  1  0 ]  [ 1  0  0  0  0 ]  [ 1  0  0  0  0 ]  [ 0  0  1  0  0 ]  [ 0  0  1  0  0 ]  [ 0  0  0  0  1 ]  [ 1  0  0  0  0 ]  [ 0  0  0  1  0 ]  [ 0  0  0  1  0 ]  [ 0  0  0  0  1 ]  [ 0  0  1  0  0 ]  [ 0  0  0  1  0 ]  [ 0  0  0  0  1 ]  [ 0  0  0  0  1 ]  [ 0  0  0  1  0 ]  [ 0  0  0  1  0 ]  [ 0  0  0  1  0 ]  [ 0  0  0  0  1 ]  [ 0  0  0  1  0 ]  [ 0  0  1  0  0 ]  [ 1  0  0  0  0 ]  [ 0  0  0  0  1 ]  [ 0  1  0  0  0 ]  [ 0  0  1  0  0 ]  [ 1  0  0  0  0 ]  [ 1  0  0  0  0 ]  [ 0  0  1  0  0 ]  [ 0  0  0  1  0 ]  [ 0  1  0  0  0 ]  [ 0  1  0  0  0 ]  [ 1  0  0  0  0 ]  [ 0  0  0  0  1 ]  [ 1  0  0  0  0 ]  [ 0  1  0  0  0 ]  [ 0  0  0  1  0 ]  [ 0  0  0  0  1 ]  [ 1  0  0  0  0 ]  [ 1  0  0  0  0 ]  [ 0  0  0  0  1 ]  [ 0  0  0  0  1 ]  [ 0  0  1  0  0 ]  [ 0  0  0  1  0 ]  [ 0  1  0  0  0 ]  [ 0  0  0  0  1 ]  [ 0  0  1  0  0 ]  [ 0  0  0  0  1 ]  [ 0  1  0  0  0 ]  [ 0  1  0  0  0 ]  [ 0  0  0  1  0 ]  [ 0  0  0  0  1 ]  [ 0  0  0  0  1 ]  [ 0  1  0  0  0 ]  [ 0  0  0  0  1 ]  [ 0  0  0  1  0 ]  [ 0  0  0  0  1 ]  [ 0  0  1  0  0 ]  [ 0  0  1  0  0 ]  [ 0  1  0  0  0 ]  [ 1  0  0  0  0 ]  [ 0  0  0  0  1 ]  [ 0  0  0  1  0 ]  [ 0  0  1  0  0 ]  [ 0  0  0  0  1 ]  [ 1  0  0  0  0 ]  [ 0  1  0  0  0 ]  [ 0  0  0  0  1 ]  [ 1  0  0  0  0 ]  [ 0  0  0  1  0 ]  [ 0  0  0  0  1 ]  [ 1  0  0  0  0 ]  [ 0  0  0  0  1 ]  [ 0  0  0  0  1 ]  [ 0  0  0  1  0 ]  [ 0  0  0  0  1 ]  [ 1  0  0  0  0 ]  [ 0  0  1  0  0 ]  [ 0  1  0  0  0 ]  [ 1  0  0  0  0 ]  [ 1  0  0  0  0 ]  [ 0  1  0  0  0 ]  [ 1  0  0  0  0 ]  [ 0  0  0  0  1 ]  [ 0  0  0  0  1 ]  [ 0  0  0  0  1 ]  [ 0  0  1  0  0 ]  [ 1  0  0  0  0 ]  [ 0  0  0  0  1 ]  [ 0  0  1  0  0 ]  [ 0  0  0  0  1 ]  [ 0  0  0  0  1 ]  [ 0  0  0  1  0 ]  [ 0  0  0  1  0 ]  [ 0  0  0  0  1 ]  [ 0  1  0  0  0 ]  [ 0  1  0  0  0 ]  [ 0  0  0  0  1 ]  [ 0  0  1  0  0 ]  [ 0  0  0  1  0 ]  [ 0  0  1  0  0 ]  [ 0  0  0  0  1 ]  [ 1  0  0  0  0 ]  [ 0  1  0  0  0 ]  [ 0  1  0  0  0 ]  [ 1  0  0  0  0 ]  [ 0  0  0  1  0 ]  [ 1  0  0  0  0 ]  [ 0  1  0  0  0 ]  [ 0  0  1  0  0 ]  [ 0  0  1  0  0 ]  [ 0  0  1  0  0 ]  [ 0  1  0  0  0 ]  [ 0  0  0  1  0 ]  [ 0  0  1  0  0 ]  [ 0  1  0  0  0 ]  [ 0  0  0  1  0 ]  [ 0  0  1  0  0 ]  [ 0  0  1  0  0 ]  [ 0  0  0  0  1 ]  [ 0  0  1  0  0 ]  [ 0  0  0  1  0 ]  [ 0  1  0  0  0 ]  [ 0  0  0  0  1 ]  [ 0  0  0  1  0 ]  [ 0  0  0  0  1 ]  [ 0  0  1  0  0 ]  [ 0  0  0  1  0 ]  [ 0  0  0  0  1 ]  [ 0  0  1  0  0 ]  [ 0  0  1  0  0 ]  [ 1  0  0  0  0 ]  [ 0  0  0  0  1 ]  [ 0  0  0  1  0 ]  [ 0  1  0  0  0 ]  [ 1  0  0  0  0 ]  [ 0  0  1  0  0 ]  [ 0  0  1  0  0 ]  [ 0  0  1  0  0 ]  [ 0  1  0  0  0 ]  [ 0  0  1  0  0 ]  [ 0  1  0  0  0 ]  [ 0  1  0  0  0 ]  [ 0  0  0  0  1 ]  [ 0  0  0  1  0 ]  [ 1  0  0  0  0 ]  [ 0  1  0  0  0 ]  [ 0  0  0  0  1 ]  [ 0  0  0  1  0 ]  [ 0  1  0  0  0 ]  [ 0  0  0  1  0 ]  [ 0  0  0  0  1 ]  [ 0  0  0  1  0 ]  [ 0  1  0  0  0 ]  [ 0  0  1  0  0 ]  [ 0  0  0  1  0 ]  [ 1  0  0  0  0 ]  [ 1  0  0  0  0 ]  [ 0  0  0  1  0 ]  [ 1  0  0  0  0 ]  [ 0  0  0  1  0 ]  [ 1  0  0  0  0 ]  [ 0  1  0  0  0 ]  [ 0  0  0  0  1 ]  [ 0  0  0  1  0 ]  [ 0  0  1  0  0 ]  [ 1  0  0  0  0 ]  [ 0  0  1  0  0 ]  [ 1  0  0  0  0 ]  [ 1  0  0  0  0 ]  [ 0  0  0  0  1 ]  [ 0  0  1  0  0 ]  [ 1  0  0  0  0 ]  [ 1  0  0  0  0 ]  [ 0  1  0  0  0 ]  [ 0  0  0  0  1 ]  [ 0  0  0  1  0 ]  [ 0  0  0  1  0 ]  [ 0  0  0  1  0 ]  [ 0  1  0  0  0 ]  [ 0  0  0  0  1 ]  [ 0  0  1  0  0 ]  [ 0  0  1  0  0 ]  [ 0  1  0  0  0 ]  [ 0  0  0  1  0 ]  [ 0  0  0  0  1 ]  [ 0  0  0  1  0 ]  [ 1  0  0  0  0 ]  [ 1  0  0  0  0 ]  [ 0  0  1  0  0 ]  [ 0  0  0  1  0 ]  [ 0  0  0  1  0 ]  [ 1  0  0  0  0 ]  [ 0  1  0  0  0 ]  [ 0  0  0  1  0 ]  [ 0  0  0  1  0 ]  [ 0  1  0  0  0 ]  [ 1  0  0  0  0 ]  [ 1  0  0  0  0 ]  [ 0  0  0  1  0 ]  [ 1  0  0  0  0 ]  [ 0  1  0  0  0 ]  [ 0  0  0  0  1 ]  [ 1  0  0  0  0 ]  [ 0  0  0  1  0 ]  [ 0  1  0  0  0 ]  [ 0  0  1  0  0 ]  [ 0  0  1  0  0 ]  [ 1  0  0  0  0 ]  [ 0  0  0  1  0 ]  [ 0  1  0  0  0 ]  [ 0  1  0  0  0 ]  [ 1  0  0  0  0 ]  [ 0  0  0  1  0 ]  [ 0  0  0  1  0 ]  [ 0  0  0  1  0 ]  [ 1  0  0  0  0 ]  [ 0  1  0  0  0 ]  [ 1  0  0  0  0 ]  [ 1  0  0  0  0 ]  [ 0  0  1  0  0 ]  [ 0  0  0  0  1 ]  [ 0  0  1  0  0 ]  [ 0  0  1  0  0 ]  [ 0  0  1  0  0 ]  [ 1  0  0  0  0 ]  [ 0  1  0  0  0 ]  [ 1  0  0  0  0 ]  [ 0  0  0  1  0 ]  [ 0  1  0  0  0 ]  [ 0  1  0  0  0 ]  [ 0  0  0  1  0 ]  [ 0  0  0  0  1 ]  [ 0  0  0  1  0 ]  [ 0  0  1  0  0 ]  [ 0  0  0  1  0 ]  [ 1  0  0  0  0 ]  [ 0  0  0  0  1 ]  [ 1  0  0  0  0 ]  [ 0  0  0  0  1 ]  [ 0  0  0  1  0 ]  [ 0  1  0  0  0 ]  [ 1  0  0  0  0 ]  [ 0  0  1  0  0 ]  [ 0  1  0  0  0 ]  [ 0  0  1  0  0 ]  [ 0  0  1  0  0 ]  [ 1  0  0  0  0 ]  [ 0  0  1  0  0 ]  [ 0  0  0  1  0 ]  [ 1  0  0  0  0 ]  [ 0  0  0  0  1 ]  [ 0  0  1  0  0 ]  [ 0  0  1  0  0 ]  [ 0  0  0  1  0 ]  [ 0  1  0  0  0 ]  [ 0  0  1  0  0 ]  [ 1  0  0  0  0 ]  [ 0  0  0  1  0 ]  [ 1  0  0  0  0 ]  [ 1  0  0  0  0 ]  [ 0  0  0  1  0 ]  [ 0  0  0  1  0 ]  [ 0  0  0  0  1 ]  [ 0  0  1  0  0 ]  [ 0  1  0  0  0 ]  [ 0  0  1  0  0 ]  [ 0  0  1  0  0 ]  [ 1  0  0  0  0 ]  [ 0  0  0  1  0 ]  [ 0  0  0  0  1 ]  [ 0  0  0  0  1 ]  [ 0  0  0  1  0 ]  [ 0  0  1  0  0 ]  [ 1  0  0  0  0 ]  [ 1  0  0  0  0 ]  [ 1  0  0  0  0 ]  [ 0  0  1  0  0 ]  [ 0  0  0  1  0 ]  [ 0  1  0  0  0 ]  [ 1  0  0  0  0 ]  [ 0  0  0  0  1 ]  [ 0  1  0  0  0 ]  [ 0  1  0  0  0 ]  [ 0  0  0  1  0 ]  [ 0  0  0  0  1 ]  [ 0  0  0  1  0 ]  [ 0  0  0  1  0 ]  [ 0  0  1  0  0 ]  [ 0  0  0  1  0 ]  [ 1  0  0  0  0 ]  [ 0  0  0  0  1 ]  [ 0  1  0  0  0 ]  [ 0  1  0  0  0 ]  [ 1  0  0  0  0 ]  [ 0  0  0  1  0 ]  [ 0  0  0  1  0 ]  [ 0  0  0  1  0 ]  [ 0  0  0  1  0 ]  [ 1  0  0  0  0 ]  [ 1  0  0  0  0 ]  [ 0  0  0  1  0 ]  [ 0  0  0  1  0 ]  [ 0  0  0  0  1 ]  [ 0  0  0  0  1 ]  [ 0  0  0  0  1 ]  [ 0  0  0  1  0 ]  [ 0  0  1  0  0 ]  [ 0  0  0  1  0 ]  [ 0  0  1  0  0 ]  [ 0  0  0  0  1 ]  [ 0  0  1  0  0 ]  [ 0  0  1  0  0 ]  [ 0  1  0  0  0 ]  [ 0  0  0  1  0 ]  [ 0  1  0  0  0 ]  [ 0  0  0  0  1 ]  [ 1  0  0  0  0 ]  [ 0  0  1  0  0 ]  [ 0  0  0  0  1 ]  [ 0  1  0  0  0 ]  [ 0  0  1  0  0 ]  [ 1  0  0  0  0 ]  [ 0  0  1  0  0 ]  [ 0  1  0  0  0 ]  [ 1  0  0  0  0 ]  [ 1  0  0  0  0 ]  [ 0  0  0  1  0 ]  [ 0  0  1  0  0 ]  [ 0  0  0  0  1 ]  [ 1  0  0  0  0 ]  [ 0  0  0  1  0 ]  [ 1  0  0  0  0 ]  [ 0  0  1  0  0 ]  [ 1  0  0  0  0 ]  [ 0  0  1  0  0 ]  [ 0  0  0  1  0 ]  [ 1  0  0  0  0 ]  [ 1  0  0  0  0 ]  [ 1  0  0  0  0 ]  [ 1  0  0  0  0 ]  [ 0  1  0  0  0 ]  [ 0  1  0  0  0 ]  [ 0  0  1  0  0 ]  [ 0  0  0  0  1 ]  [ 0  0  1  0  0 ]  [ 0  1  0  0  0 ]  [ 0  1  0  0  0 ]  [ 0  0  0  1  0 ]  [ 0  0  1  0  0 ]  [ 1  0  0  0  0 ]  [ 1  0  0  0  0 ]  [ 0  0  0  0  1 ]  [ 0  0  0  0  1 ]  [ 1  0  0  0  0 ]  [ 0  0  0  0  1 ]  [ 0  0  0  1  0 ]  [ 0  0  0  1  0 ]  [ 0  0  0  1  0 ]  [ 0  0  1  0  0 ]  [ 0  1  0  0  0 ]  [ 0  0  0  0  1 ]  [ 0  0  0  0  1 ]  [ 0  0  1  0  0 ]  [ 0  0  0  1  0 ]  [ 0  0  1  0  0 ]  [ 0  0  1  0  0 ]  [ 0  0  0  1  0 ]  [ 1  0  0  0  0 ]  [ 0  0  0  1  0 ]  [ 0  0  0  0  1 ]  [ 0  1  0  0  0 ]  [ 0  0  0  1  0 ]  [ 0  0  1  0  0 ]  [ 0  0  0  0  1 ]  [ 0  0  0  0  1 ]  [ 0  1  0  0  0 ]  [ 0  0  0  0  1 ]  [ 0  1  0  0  0 ]  [ 0  1  0  0  0 ]  [ 0  0  0  1  0 ]  [ 0  0  0  0  1 ]  [ 0  0  0  0  1 ]  [ 0  0  0  1  0 ]  [ 0  0  0  0  1 ]  [ 0  0  0  0  1 ]  [ 1  0  0  0  0 ]  [ 1  0  0  0  0 ]  [ 0  0  0  1  0 ]  [ 0  1  0  0  0 ]  [ 0  0  1  0  0 ]  [ 0  0  1  0  0 ]  [ 0  0  0  0  1 ]  [ 1  0  0  0  0 ]  [ 0  0  1  0  0 ]  [ 0  1  0  0  0 ]  [ 1  0  0  0  0 ]  [ 0  0  0  1  0 ]  [ 0  1  0  0  0 ]  [ 1  0  0  0  0 ]  [ 0  0  0  1  0 ]  [ 0  1  0  0  0 ]  [ 0  1  0  0  0 ]  [ 0  0  0  0  1 ]  [ 1  0  0  0  0 ]  [ 1  0  0  0  0 ]  [ 1  0  0  0  0 ]  [ 0  0  0  0  1 ]  [ 0  0  1  0  0 ]  [ 0  0  0  1  0 ]  [ 0  0  0  1  0 ]  [ 0  0  0  0  1 ]  [ 0  1  0  0  0 ]  [ 0  0  1  0  0 ]  [ 0  1  0  0  0 ]  [ 0  1  0  0  0 ]  [ 0  0  0  1  0 ]  [ 0  0  0  0  1 ]  [ 0  0  1  0  0 ]  [ 0  1  0  0  0 ]  [ 0  0  1  0  0 ]  [ 1  0  0  0  0 ]  [ 1  0  0  0  0 ]  [ 0  1  0  0  0 ]  [ 0  0  0  1  0 ]  [ 1  0  0  0  0 ]  [ 1  0  0  0  0 ]  [ 0  0  1  0  0 ]  [ 0  1  0  0  0 ]  [ 1  0  0  0  0 ]  [ 0  1  0  0  0 ]  [ 0  1  0  0  0 ]  [ 0  0  0  0  1 ]  [ 1  0  0  0  0 ]  [ 1  0  0  0  0 ]  [ 0  0  0  1  0 ]  [ 1  0  0  0  0 ]  [ 0  0  0  0  1 ]  [ 0  0  1  0  0 ]  [ 0  0  0  1  0 ]  [ 0  0  1  0  0 ]  [ 1  0  0  0  0 ]  [ 1  0  0  0  0 ]  [ 0  0  1  0  0 ]  [ 0  1  0  0  0 ]  [ 0  0  0  0  1 ]  [ 0  0  1  0  0 ]  [ 0  0  0  1  0 ]  [ 0  0  0  1  0 ]  [ 0  1  0  0  0 ]  [ 0  0  1  0  0 ]  [ 0  0  1  0  0 ]  [ 0  0  0  0  1 ]  [ 0  0  1  0  0 ]  [ 0  1  0  0  0 ]  [ 0  1  0  0  0 ]  [ 1  0  0  0  0 ]  [ 0  0  0  1  0 ]  [ 0  0  0  1  0 ]  [ 0  0  0  0  1 ]  [ 0  0  0  1  0 ]  [ 0  0  0  0  1 ]  [ 0  0  0  1  0 ]  [ 0  1  0  0  0 ]  [ 0  1  0  0  0 ]  [ 1  0  0  0  0 ]  [ 1  0  0  0  0 ]  [ 0  0  0  0  1 ]  [ 0  0  0  0  1 ]  [ 1  0  0  0  0 ]  [ 0  1  0  0  0 ]  [ 0  0  0  0  1 ]  [ 0  0  0  1  0 ]  [ 0  0  0  1  0 ]  [ 0  0  1  0  0 ]  [ 1  0  0  0  0 ]  [ 0  0  1  0  0 ]  [ 0  1  0  0  0 ]  [ 0  0  0  0  1 ]  [ 1  0  0  0  0 ]  [ 0  1  0  0  0 ]  [ 1  0  0  0  0 ]  [ 0  0  1  0  0 ]  [ 0  0  0  0  1 ]  [ 0  0  0  0  1 ]  [ 0  0  0  1  0 ] ];

ObjRequests = {  <1,3,51>, <2,3,270>, <3,3,49>, <4,3,107>, <5,3,28>, <6,3,78>, <7,3,40>, <8,3,10>, <9,3,6>, <10,3,8>, <11,3,56>, <12,3,9>, <13,3,17>, <14,3,9>, <15,3,14>, <16,3,8>, <17,3,23>, <18,3,10>, <19,3,21>, <20,3,8>, <21,3,14>, <22,3,19>, <23,3,44>, <24,3,3>, <25,3,34>, <26,3,3>, <27,3,4>, <28,3,8>, <29,3,7>, <30,3,1>, <31,3,6>, <32,3,7>, <33,3,2>, <34,3,2>, <35,3,1>, <36,3,29>, <38,3,3>, <39,3,4>, <40,3,4>, <41,3,2>, <42,3,1>, <43,3,8>, <44,3,21>, <45,3,14>, <46,3,9>, <47,3,3>, <49,3,7>, <51,3,3>, <52,3,5>, <53,3,5>, <54,3,3>, <55,3,9>, <56,3,12>, <57,3,1>, <58,3,15>, <59,3,3>, <60,3,13>, <61,3,1>, <62,3,2>, <63,3,2>, <64,3,4>, <65,3,2>, <66,3,9>, <67,3,6>, <68,3,2>, <69,3,5>, <70,3,4>, <71,3,2>, <72,3,1>, <73,3,2>, <75,3,1>, <76,3,4>, <77,3,9>, <79,3,6>, <83,3,2>, <86,3,3>, <87,3,6>, <88,3,6>, <89,3,3>, <90,3,2>, <91,3,7>, <92,3,4>, <93,3,2>, <94,3,1>, <95,3,3>, <97,3,1>, <98,3,5>, <99,3,4>, <100,3,2>, <101,3,2>, <102,3,2>, <103,3,8>, <104,3,3>, <105,3,2>, <106,3,2>, <107,3,3>, <109,3,4>, <110,3,1>, <111,3,2>, <112,3,6>, <113,3,3>, <115,3,2>, <116,3,1>, <119,3,3>, <120,3,1>, <121,3,1>, <122,3,1>, <123,3,3>, <124,3,5>, <126,3,3>, <127,3,2>, <128,3,8>, <129,3,3>, <130,3,1>, <131,3,2>, <132,3,2>, <134,3,5>, <136,3,2>, <138,3,1>, <139,3,6>, <140,3,5>, <141,3,1>, <142,3,1>, <143,3,3>, <146,3,3>, <147,3,2>, <149,3,2>, <152,3,2>, <153,3,4>, <154,3,2>, <155,3,8>, <156,3,1>, <157,3,1>, <158,3,2>, <159,3,4>, <160,3,6>, <161,3,2>, <162,3,1>, <163,3,1>, <164,3,2>, <165,3,2>, <166,3,1>, <167,3,4>, <168,3,1>, <169,3,2>, <170,3,1>, <171,3,1>, <172,3,4>, <173,3,1>, <174,3,7>, <175,3,5>, <176,3,1>, <180,3,3>, <181,3,1>, <182,3,2>, <183,3,5>, <184,3,1>, <186,3,2>, <187,3,1>, <188,3,2>, <189,3,2>, <190,3,1>, <192,3,4>, <196,3,1>, <197,3,1>, <199,3,1>, <201,3,1>, <202,3,3>, <203,3,2>, <204,3,4>, <205,3,1>, <208,3,4>, <209,3,2>, <211,3,1>, <213,3,4>, <214,3,1>, <215,3,1>, <217,3,1>, <218,3,4>, <219,3,4>, <220,3,1>, <222,3,1>, <224,3,1>, <228,3,4>, <229,3,1>, <231,3,1>, <234,3,1>, <235,3,2>, <236,3,1>, <239,3,1>, <241,3,2>, <242,3,1>, <243,3,3>, <244,3,1>, <245,3,1>, <246,3,1>, <247,3,1>, <248,3,1>, <249,3,1>, <250,3,2>, <251,3,3>, <254,3,1>, <255,3,1>, <256,3,1>, <260,3,1>, <262,3,1>, <263,3,1>, <264,3,5>, <265,3,2>, <266,3,4>, <269,3,2>, <270,3,3>, <271,3,3>, <272,3,1>, <274,3,2>, <277,3,2>, <278,3,1>, <280,3,1>, <281,3,1>, <282,3,2>, <283,3,4>, <284,3,2>, <285,3,1>, <287,3,1>, <288,3,1>, <290,3,1>, <292,3,3>, <294,3,1>, <295,3,4>, <296,3,1>, <298,3,1>, <300,3,1>, <302,3,3>, <303,3,1>, <304,3,2>, <305,3,1>, <306,3,1>, <307,3,2>, <309,3,1>, <310,3,1>, <311,3,1>, <313,3,1>, <314,3,1>, <315,3,3>, <317,3,6>, <319,3,1>, <323,3,1>, <324,3,1>, <325,3,2>, <327,3,1>, <335,3,1>, <336,3,1>, <339,3,1>, <342,3,1>, <343,3,1>, <344,3,1>, <345,3,1>, <346,3,1>, <347,3,1>, <349,3,4>, <351,3,2>, <352,3,1>, <356,3,1>, <358,3,2>, <360,3,3>, <363,3,3>, <367,3,1>, <368,3,1>, <369,3,3>, <371,3,1>, <374,3,1>, <375,3,1>, <382,3,1>, <383,3,1>, <384,3,1>, <385,3,1>, <386,3,1>, <388,3,1>, <389,3,3>, <390,3,1>, <391,3,1>, <394,3,1>, <397,3,1>, <399,3,3>, <402,3,1>, <403,3,1>, <404,3,1>, <407,3,1>, <408,3,4>, <410,3,2>, <411,3,1>, <412,3,1>, <414,3,1>, <415,3,2>, <417,3,2>, <418,3,3>, <419,3,1>, <421,3,1>, <423,3,1>, <424,3,1>, <426,3,4>, <427,3,1>, <431,3,1>, <436,3,1>, <437,3,1>, <441,3,1>, <443,3,1>, <445,3,1>, <446,3,1>, <447,3,1>, <450,3,1>, <451,3,1>, <452,3,2>, <454,3,1>, <455,3,2>, <458,3,1>, <459,3,1>, <460,3,1>, <464,3,1>, <468,3,3>, <470,3,1>, <472,3,4>, <473,3,1>, <477,3,1>, <478,3,1>, <479,3,1>, <485,3,1>, <486,3,2>, <491,3,1>, <492,3,1>, <493,3,1>, <496,3,1>, <1,4,392>, <2,4,92>, <3,4,6>, <4,4,45>, <5,4,229>, <6,4,25>, <7,4,91>, <8,4,25>, <9,4,24>, <10,4,110>, <11,4,2>, <12,4,19>, <13,4,33>, <14,4,10>, <15,4,19>, <16,4,24>, <17,4,9>, <18,4,7>, <19,4,7>, <20,4,25>, <21,4,13>, <22,4,2>, <23,4,13>, <24,4,32>, <25,4,1>, <26,4,2>, <27,4,3>, <28,4,2>, <29,4,2>, <30,4,1>, <31,4,30>, <32,4,5>, <33,4,11>, <34,4,2>, <35,4,2>, <36,4,6>, <37,4,1>, <38,4,2>, <39,4,2>, <40,4,7>, <42,4,8>, <43,4,11>, <44,4,1>, <46,4,8>, <47,4,8>, <49,4,5>, <50,4,29>, <51,4,4>, <52,4,2>, <54,4,3>, <55,4,2>, <56,4,3>, <57,4,5>, <58,4,3>, <59,4,8>, <60,4,7>, <61,4,6>, <62,4,3>, <63,4,3>, <64,4,4>, <65,4,1>, <66,4,4>, <67,4,4>, <68,4,3>, <69,4,2>, <71,4,5>, <72,4,6>, <73,4,6>, <74,4,18>, <75,4,2>, <76,4,1>, <77,4,9>, <78,4,4>, <79,4,2>, <80,4,2>, <81,4,7>, <83,4,1>, <85,4,2>, <86,4,4>, <87,4,4>, <88,4,1>, <89,4,1>, <90,4,4>, <91,4,7>, <92,4,10>, <93,4,1>, <94,4,10>, <95,4,1>, <96,4,5>, <97,4,16>, <98,4,2>, <99,4,1>, <100,4,2>, <101,4,11>, <102,4,1>, <103,4,2>, <104,4,1>, <105,4,2>, <106,4,4>, <107,4,2>, <108,4,3>, <109,4,2>, <110,4,3>, <111,4,2>, <113,4,1>, <114,4,7>, <115,4,1>, <116,4,5>, <117,4,1>, <118,4,2>, <119,4,1>, <121,4,4>, <122,4,2>, <124,4,3>, <125,4,3>, <126,4,1>, <128,4,1>, <130,4,1>, <131,4,1>, <133,4,2>, <134,4,1>, <135,4,3>, <136,4,6>, <137,4,4>, <138,4,2>, <140,4,6>, <141,4,1>, <142,4,5>, <143,4,1>, <144,4,1>, <145,4,2>, <146,4,1>, <147,4,3>, <148,4,5>, <149,4,1>, <150,4,1>, <154,4,3>, <155,4,2>, <156,4,2>, <157,4,1>, <158,4,2>, <159,4,2>, <160,4,3>, <162,4,5>, <164,4,3>, <166,4,5>, <167,4,1>, <168,4,1>, <169,4,1>, <170,4,1>, <171,4,4>, <173,4,3>, <174,4,1>, <176,4,1>, <179,4,1>, <180,4,2>, <181,4,2>, <182,4,3>, <183,4,1>, <184,4,1>, <185,4,1>, <187,4,1>, <188,4,1>, <189,4,2>, <190,4,4>, <191,4,1>, <193,4,4>, <194,4,3>, <195,4,2>, <196,4,1>, <198,4,1>, <199,4,2>, <200,4,2>, <201,4,3>, <202,4,2>, <205,4,1>, <206,4,1>, <207,4,2>, <209,4,1>, <210,4,2>, <211,4,2>, <212,4,2>, <214,4,1>, <216,4,1>, <217,4,1>, <218,4,1>, <221,4,1>, <222,4,1>, <223,4,1>, <224,4,1>, <226,4,1>, <229,4,1>, <230,4,2>, <231,4,1>, <232,4,3>, <233,4,1>, <235,4,2>, <240,4,1>, <241,4,2>, <243,4,1>, <245,4,1>, <249,4,1>, <252,4,2>, <253,4,1>, <254,4,1>, <256,4,1>, <258,4,3>, <259,4,1>, <260,4,1>, <264,4,7>, <265,4,1>, <266,4,1>, <267,4,1>, <268,4,2>, <269,4,2>, <270,4,2>, <271,4,2>, <272,4,6>, <273,4,1>, <274,4,2>, <275,4,2>, <277,4,1>, <278,4,2>, <279,4,1>, <282,4,1>, <283,4,1>, <286,4,5>, <287,4,2>, <288,4,2>, <290,4,3>, <291,4,2>, <293,4,1>, <294,4,4>, <295,4,1>, <297,4,1>, <298,4,2>, <299,4,1>, <301,4,2>, <302,4,3>, <305,4,1>, <307,4,2>, <308,4,1>, <309,4,1>, <311,4,1>, <313,4,1>, <314,4,1>, <315,4,1>, <317,4,1>, <318,4,1>, <319,4,1>, <321,4,2>, <322,4,5>, <324,4,1>, <326,4,2>, <327,4,2>, <328,4,1>, <330,4,1>, <331,4,2>, <334,4,1>, <336,4,1>, <337,4,2>, <339,4,4>, <341,4,2>, <343,4,1>, <344,4,1>, <345,4,1>, <346,4,1>, <351,4,1>, <356,4,2>, <361,4,1>, <362,4,2>, <364,4,1>, <365,4,1>, <367,4,1>, <368,4,2>, <369,4,1>, <370,4,1>, <371,4,1>, <376,4,1>, <380,4,2>, <382,4,1>, <383,4,1>, <384,4,1>, <386,4,1>, <387,4,1>, <388,4,1>, <389,4,1>, <392,4,1>, <394,4,3>, <399,4,1>, <400,4,1>, <401,4,1>, <403,4,1>, <404,4,1>, <405,4,1>, <411,4,1>, <412,4,5>, <413,4,1>, <414,4,1>, <415,4,1>, <417,4,1>, <418,4,1>, <419,4,2>, <420,4,1>, <424,4,1>, <428,4,1>, <429,4,1>, <430,4,2>, <431,4,1>, <432,4,1>, <443,4,1>, <444,4,1>, <445,4,2>, <452,4,3>, <454,4,1>, <458,4,1>, <459,4,1>, <460,4,1>, <461,4,2>, <463,4,1>, <464,4,1>, <467,4,3>, <468,4,1>, <471,4,1>, <473,4,1>, <478,4,2>, <479,4,2>, <482,4,1>, <483,4,1>, <486,4,1>, <488,4,1>, <490,4,1>, <491,4,1>, <494,4,1>, <498,4,2>, <499,4,1>, <1,5,115>, <2,5,119>, <3,5,138>, <4,5,46>, <5,5,16>, <6,5,30>, <7,5,22>, <8,5,52>, <9,5,38>, <10,5,3>, <11,5,60>, <12,5,2>, <13,5,9>, <14,5,10>, <15,5,10>, <16,5,24>, <17,5,40>, <18,5,9>, <19,5,14>, <20,5,15>, <21,5,11>, <22,5,6>, <23,5,5>, <24,5,12>, <25,5,5>, <26,5,2>, <27,5,18>, <29,5,23>, <30,5,15>, <31,5,1>, <32,5,20>, <33,5,3>, <34,5,6>, <35,5,4>, <37,5,5>, <38,5,3>, <39,5,8>, <40,5,13>, <41,5,1>, <42,5,3>, <43,5,4>, <44,5,4>, <45,5,6>, <46,5,2>, <47,5,3>, <48,5,4>, <49,5,1>, <51,5,2>, <52,5,13>, <54,5,7>, <55,5,5>, <56,5,3>, <57,5,2>, <58,5,5>, <59,5,2>, <61,5,7>, <63,5,8>, <64,5,2>, <65,5,7>, <66,5,1>, <67,5,13>, <68,5,7>, <69,5,5>, <70,5,7>, <73,5,3>, <74,5,2>, <75,5,2>, <76,5,2>, <77,5,1>, <79,5,1>, <80,5,1>, <81,5,7>, <82,5,5>, <83,5,1>, <84,5,7>, <86,5,11>, <87,5,4>, <88,5,9>, <89,5,3>, <90,5,9>, <91,5,2>, <92,5,1>, <93,5,7>, <94,5,3>, <95,5,8>, <96,5,2>, <97,5,2>, <98,5,1>, <99,5,5>, <100,5,11>, <101,5,2>, <102,5,6>, <103,5,1>, <104,5,1>, <105,5,1>, <106,5,5>, <107,5,3>, <108,5,7>, <109,5,6>, <110,5,3>, <111,5,1>, <112,5,1>, <113,5,1>, <114,5,1>, <115,5,2>, <116,5,1>, <117,5,5>, <118,5,5>, <119,5,2>, <120,5,4>, <121,5,2>, <122,5,4>, <123,5,1>, <124,5,2>, <125,5,1>, <126,5,1>, <128,5,1>, <129,5,3>, <131,5,8>, <132,5,4>, <133,5,1>, <134,5,2>, <135,5,1>, <136,5,1>, <138,5,1>, <141,5,1>, <142,5,1>, <143,5,3>, <144,5,4>, <145,5,3>, <147,5,1>, <148,5,1>, <150,5,1>, <151,5,2>, <152,5,2>, <153,5,1>, <155,5,1>, <156,5,1>, <157,5,4>, <158,5,1>, <159,5,2>, <160,5,3>, <161,5,2>, <162,5,2>, <163,5,5>, <164,5,1>, <165,5,2>, <166,5,1>, <167,5,1>, <168,5,1>, <170,5,2>, <171,5,4>, <174,5,1>, <176,5,2>, <179,5,3>, <180,5,1>, <181,5,2>, <182,5,1>, <183,5,3>, <184,5,8>, <186,5,4>, <187,5,4>, <188,5,3>, <190,5,1>, <191,5,2>, <192,5,1>, <193,5,3>, <194,5,1>, <195,5,4>, <196,5,1>, <197,5,1>, <198,5,1>, <199,5,1>, <200,5,1>, <201,5,1>, <202,5,4>, <203,5,1>, <204,5,1>, <206,5,1>, <207,5,2>, <209,5,2>, <210,5,1>, <212,5,1>, <214,5,1>, <215,5,2>, <218,5,1>, <220,5,1>, <221,5,1>, <222,5,4>, <223,5,1>, <224,5,1>, <225,5,1>, <226,5,3>, <227,5,2>, <228,5,4>, <229,5,2>, <230,5,2>, <231,5,2>, <232,5,2>, <233,5,3>, <234,5,2>, <236,5,1>, <238,5,1>, <239,5,2>, <240,5,2>, <241,5,1>, <242,5,1>, <244,5,1>, <245,5,1>, <248,5,4>, <249,5,1>, <250,5,2>, <253,5,3>, <254,5,2>, <255,5,1>, <256,5,1>, <259,5,1>, <260,5,1>, <263,5,2>, <264,5,3>, <266,5,1>, <268,5,1>, <269,5,2>, <271,5,3>, <273,5,2>, <274,5,2>, <276,5,1>, <277,5,2>, <278,5,3>, <280,5,1>, <281,5,1>, <282,5,2>, <285,5,3>, <288,5,2>, <290,5,1>, <291,5,1>, <292,5,2>, <293,5,1>, <294,5,1>, <296,5,2>, <297,5,1>, <298,5,5>, <301,5,1>, <302,5,3>, <303,5,1>, <304,5,1>, <306,5,1>, <307,5,2>, <310,5,1>, <311,5,1>, <314,5,1>, <315,5,1>, <317,5,1>, <319,5,2>, <320,5,1>, <322,5,1>, <324,5,3>, <325,5,2>, <326,5,1>, <327,5,5>, <328,5,1>, <329,5,2>, <331,5,2>, <335,5,1>, <337,5,2>, <338,5,1>, <342,5,4>, <343,5,1>, <346,5,1>, <347,5,1>, <348,5,2>, <349,5,1>, <351,5,2>, <355,5,1>, <356,5,1>, <359,5,1>, <361,5,1>, <369,5,1>, <370,5,1>, <373,5,1>, <375,5,1>, <377,5,1>, <381,5,1>, <382,5,2>, <383,5,2>, <385,5,1>, <386,5,2>, <388,5,2>, <391,5,1>, <394,5,1>, <395,5,1>, <396,5,1>, <397,5,4>, <400,5,1>, <401,5,1>, <403,5,1>, <408,5,2>, <410,5,2>, <412,5,5>, <416,5,1>, <417,5,1>, <418,5,1>, <419,5,1>, <421,5,1>, <424,5,2>, <426,5,1>, <427,5,1>, <429,5,1>, <430,5,1>, <431,5,1>, <434,5,2>, <438,5,1>, <441,5,1>, <443,5,1>, <444,5,1>, <446,5,2>, <448,5,4>, <452,5,1>, <453,5,1>, <455,5,1>, <462,5,1>, <467,5,1>, <473,5,1>, <476,5,3>, <477,5,1>, <479,5,1>, <480,5,3>, <481,5,1>, <482,5,1>, <491,5,1>, <493,5,3>, <496,5,1>, <497,5,1>, <1,2,483>, <2,2,6>, <3,2,158>, <4,2,104>, <5,2,4>, <6,2,54>, <7,2,10>, <8,2,44>, <9,2,4>, <10,2,22>, <11,2,21>, <12,2,39>, <13,2,6>, <14,2,3>, <15,2,28>, <16,2,11>, <17,2,8>, <18,2,18>, <19,2,22>, <20,2,19>, <21,2,1>, <22,2,39>, <23,2,5>, <24,2,2>, <25,2,1>, <26,2,35>, <27,2,24>, <28,2,14>, <29,2,11>, <30,2,19>, <31,2,7>, <32,2,10>, <33,2,27>, <34,2,12>, <35,2,15>, <36,2,6>, <37,2,7>, <38,2,4>, <39,2,9>, <40,2,9>, <41,2,1>, <42,2,13>, <43,2,5>, <44,2,6>, <45,2,5>, <46,2,2>, <47,2,2>, <48,2,6>, <49,2,2>, <50,2,10>, <51,2,8>, <52,2,4>, <53,2,29>, <54,2,6>, <55,2,1>, <56,2,1>, <57,2,2>, <59,2,2>, <60,2,7>, <61,2,9>, <63,2,7>, <64,2,2>, <65,2,8>, <66,2,7>, <68,2,3>, <69,2,7>, <70,2,2>, <71,2,6>, <72,2,8>, <73,2,1>, <75,2,4>, <76,2,5>, <77,2,1>, <78,2,9>, <79,2,2>, <80,2,11>, <82,2,1>, <83,2,1>, <84,2,2>, <85,2,4>, <86,2,1>, <87,2,1>, <88,2,5>, <89,2,1>, <92,2,2>, <93,2,2>, <94,2,1>, <95,2,4>, <96,2,2>, <98,2,2>, <99,2,2>, <100,2,1>, <101,2,2>, <102,2,3>, <103,2,7>, <105,2,2>, <106,2,2>, <107,2,4>, <108,2,1>, <109,2,1>, <110,2,3>, <111,2,1>, <112,2,2>, <113,2,1>, <114,2,1>, <115,2,6>, <116,2,1>, <117,2,1>, <118,2,7>, <119,2,2>, <120,2,6>, <122,2,1>, <124,2,2>, <125,2,1>, <126,2,5>, <127,2,1>, <129,2,1>, <130,2,3>, <132,2,3>, <134,2,1>, <136,2,2>, <137,2,2>, <139,2,1>, <141,2,5>, <142,2,2>, <143,2,1>, <144,2,4>, <145,2,1>, <146,2,2>, <148,2,3>, <149,2,6>, <150,2,5>, <151,2,6>, <153,2,1>, <156,2,4>, <157,2,1>, <158,2,3>, <159,2,1>, <160,2,1>, <161,2,2>, <162,2,1>, <163,2,1>, <166,2,1>, <167,2,1>, <169,2,2>, <170,2,1>, <171,2,1>, <172,2,6>, <173,2,4>, <174,2,1>, <177,2,4>, <178,2,4>, <180,2,2>, <181,2,1>, <182,2,2>, <183,2,4>, <184,2,1>, <185,2,4>, <186,2,3>, <187,2,2>, <188,2,1>, <189,2,1>, <191,2,10>, <192,2,1>, <193,2,6>, <194,2,2>, <195,2,4>, <197,2,1>, <199,2,1>, <200,2,2>, <201,2,2>, <202,2,1>, <203,2,1>, <204,2,1>, <206,2,1>, <207,2,3>, <208,2,2>, <209,2,3>, <210,2,2>, <212,2,4>, <213,2,2>, <215,2,4>, <218,2,1>, <220,2,1>, <222,2,2>, <223,2,1>, <224,2,2>, <225,2,4>, <226,2,1>, <227,2,2>, <230,2,1>, <231,2,3>, <232,2,1>, <234,2,2>, <235,2,1>, <237,2,2>, <241,2,2>, <242,2,3>, <244,2,2>, <246,2,1>, <249,2,1>, <250,2,2>, <251,2,2>, <252,2,2>, <253,2,1>, <256,2,5>, <258,2,3>, <259,2,1>, <262,2,1>, <263,2,6>, <265,2,1>, <266,2,2>, <269,2,1>, <270,2,1>, <271,2,1>, <272,2,1>, <273,2,2>, <274,2,1>, <275,2,1>, <277,2,1>, <278,2,1>, <279,2,2>, <280,2,1>, <283,2,1>, <288,2,2>, <292,2,1>, <293,2,1>, <294,2,1>, <295,2,1>, <296,2,1>, <297,2,4>, <298,2,1>, <299,2,1>, <300,2,2>, <302,2,3>, <304,2,1>, <306,2,1>, <307,2,1>, <308,2,1>, <310,2,2>, <311,2,2>, <312,2,1>, <313,2,2>, <317,2,2>, <324,2,3>, <325,2,1>, <327,2,1>, <328,2,1>, <329,2,1>, <331,2,1>, <334,2,1>, <337,2,1>, <338,2,3>, <340,2,1>, <341,2,2>, <343,2,1>, <344,2,1>, <345,2,2>, <346,2,1>, <348,2,1>, <352,2,1>, <353,2,1>, <354,2,1>, <355,2,1>, <358,2,1>, <362,2,2>, <364,2,3>, <365,2,1>, <367,2,2>, <369,2,3>, <370,2,1>, <373,2,1>, <374,2,1>, <380,2,1>, <382,2,2>, <383,2,1>, <386,2,1>, <387,2,1>, <388,2,2>, <389,2,2>, <392,2,3>, <393,2,1>, <396,2,1>, <398,2,1>, <401,2,2>, <403,2,1>, <404,2,1>, <405,2,1>, <407,2,1>, <408,2,2>, <410,2,1>, <414,2,1>, <416,2,1>, <417,2,1>, <419,2,1>, <421,2,1>, <423,2,1>, <424,2,1>, <425,2,2>, <427,2,1>, <430,2,2>, <433,2,1>, <435,2,2>, <437,2,1>, <438,2,1>, <441,2,1>, <443,2,3>, <444,2,1>, <445,2,1>, <447,2,1>, <448,2,1>, <451,2,1>, <452,2,2>, <458,2,1>, <459,2,1>, <462,2,1>, <463,2,1>, <467,2,1>, <468,2,1>, <469,2,1>, <470,2,1>, <472,2,2>, <473,2,1>, <476,2,1>, <478,2,1>, <479,2,2>, <480,2,1>, <485,2,1>, <486,2,3>, <488,2,1>, <491,2,1>, <492,2,1>, <498,2,1>, <499,2,1>, <1,1,409>, <2,1,301>, <3,1,101>, <4,1,26>, <5,1,1>, <6,1,61>, <7,1,44>, <8,1,68>, <9,1,87>, <10,1,3>, <11,1,13>, <12,1,48>, <13,1,50>, <14,1,57>, <15,1,15>, <16,1,9>, <17,1,1>, <18,1,38>, <19,1,2>, <20,1,1>, <21,1,19>, <22,1,7>, <23,1,13>, <24,1,2>, <25,1,21>, <26,1,15>, <27,1,12>, <28,1,29>, <29,1,1>, <30,1,12>, <31,1,1>, <32,1,7>, <34,1,25>, <35,1,13>, <36,1,5>, <37,1,36>, <38,1,19>, <39,1,19>, <40,1,7>, <41,1,30>, <42,1,6>, <43,1,8>, <44,1,9>, <45,1,7>, <46,1,4>, <47,1,6>, <48,1,17>, <49,1,10>, <50,1,1>, <51,1,17>, <52,1,3>, <53,1,2>, <54,1,8>, <55,1,3>, <56,1,7>, <57,1,19>, <58,1,1>, <59,1,5>, <60,1,1>, <61,1,1>, <62,1,7>, <63,1,3>, <64,1,5>, <65,1,7>, <66,1,2>, <67,1,2>, <68,1,3>, <69,1,3>, <70,1,3>, <71,1,1>, <72,1,8>, <73,1,8>, <74,1,4>, <75,1,4>, <76,1,6>, <77,1,1>, <78,1,1>, <79,1,2>, <80,1,7>, <81,1,1>, <82,1,4>, <83,1,2>, <85,1,4>, <86,1,2>, <88,1,4>, <89,1,11>, <90,1,2>, <91,1,1>, <92,1,1>, <93,1,1>, <94,1,1>, <96,1,1>, <98,1,2>, <99,1,1>, <101,1,1>, <103,1,1>, <104,1,4>, <105,1,4>, <106,1,2>, <107,1,2>, <108,1,1>, <109,1,4>, <110,1,3>, <111,1,3>, <112,1,2>, <113,1,5>, <114,1,4>, <115,1,4>, <116,1,6>, <117,1,3>, <120,1,2>, <121,1,1>, <123,1,3>, <125,1,8>, <126,1,7>, <127,1,9>, <129,1,2>, <131,1,1>, <132,1,7>, <133,1,2>, <134,1,2>, <135,1,3>, <136,1,1>, <137,1,7>, <138,1,3>, <139,1,6>, <140,1,4>, <141,1,1>, <142,1,4>, <144,1,4>, <145,1,1>, <146,1,3>, <147,1,4>, <148,1,1>, <149,1,5>, <150,1,5>, <153,1,2>, <155,1,2>, <156,1,1>, <157,1,1>, <158,1,1>, <160,1,1>, <161,1,1>, <162,1,2>, <164,1,3>, <166,1,3>, <167,1,5>, <168,1,1>, <169,1,1>, <170,1,8>, <171,1,1>, <174,1,1>, <175,1,1>, <177,1,1>, <178,1,2>, <179,1,1>, <180,1,2>, <181,1,1>, <185,1,4>, <186,1,2>, <187,1,1>, <188,1,4>, <189,1,2>, <190,1,4>, <191,1,1>, <192,1,1>, <193,1,1>, <194,1,3>, <196,1,1>, <199,1,2>, <200,1,3>, <201,1,4>, <202,1,1>, <207,1,2>, <210,1,2>, <211,1,2>, <212,1,1>, <213,1,1>, <214,1,1>, <216,1,2>, <217,1,5>, <220,1,1>, <221,1,1>, <222,1,1>, <223,1,1>, <226,1,2>, <229,1,1>, <230,1,1>, <232,1,1>, <234,1,2>, <236,1,1>, <238,1,3>, <239,1,2>, <240,1,2>, <241,1,2>, <242,1,2>, <243,1,2>, <244,1,2>, <246,1,4>, <251,1,1>, <254,1,3>, <255,1,1>, <256,1,1>, <257,1,4>, <259,1,2>, <261,1,1>, <262,1,1>, <264,1,2>, <265,1,1>, <267,1,1>, <269,1,1>, <270,1,1>, <272,1,1>, <273,1,1>, <275,1,1>, <276,1,1>, <277,1,2>, <278,1,2>, <279,1,1>, <280,1,3>, <282,1,1>, <290,1,1>, <291,1,1>, <292,1,1>, <293,1,2>, <295,1,1>, <296,1,2>, <297,1,2>, <299,1,1>, <301,1,1>, <304,1,1>, <305,1,1>, <306,1,2>, <307,1,1>, <310,1,1>, <311,1,1>, <317,1,2>, <318,1,1>, <320,1,2>, <321,1,1>, <322,1,1>, <325,1,4>, <326,1,4>, <334,1,1>, <335,1,1>, <336,1,1>, <337,1,2>, <338,1,5>, <339,1,1>, <340,1,1>, <341,1,2>, <343,1,1>, <344,1,1>, <347,1,1>, <352,1,1>, <353,1,3>, <354,1,1>, <356,1,1>, <358,1,1>, <362,1,1>, <363,1,2>, <365,1,3>, <366,1,2>, <367,1,1>, <368,1,2>, <370,1,1>, <375,1,1>, <378,1,1>, <380,1,4>, <381,1,1>, <382,1,1>, <383,1,1>, <387,1,2>, <389,1,2>, <391,1,1>, <392,1,1>, <393,1,1>, <395,1,1>, <397,1,2>, <398,1,1>, <399,1,3>, <400,1,2>, <402,1,1>, <404,1,1>, <405,1,1>, <406,1,1>, <407,1,2>, <408,1,1>, <410,1,2>, <411,1,2>, <412,1,1>, <415,1,1>, <416,1,1>, <417,1,1>, <422,1,1>, <427,1,2>, <431,1,2>, <434,1,1>, <435,1,1>, <436,1,1>, <441,1,1>, <444,1,1>, <445,1,1>, <447,1,1>, <448,1,2>, <449,1,1>, <454,1,1>, <455,1,1>, <458,1,4>, <459,1,2>, <462,1,1>, <463,1,1>, <467,1,2>, <470,1,1>, <472,1,1>, <473,1,1>, <476,1,1>, <477,1,1>, <478,1,2>, <479,1,1>, <481,1,1>, <482,1,1>, <483,1,1>, <485,1,1>, <490,1,1>, <491,1,1>, <492,1,1>, <496,1,2>, <497,1,1> };

MaxCacheStorageAtSingleAS= [ 656.25  656.25  656.25  656.25  656.25 ] ;

MaxCacheStorage = 3281.25 ;
SolutionGap = 0.01 ;
